data;
set WEIGHTS := x0 x1 x2 x3 x4 x5 x6 x7 x8 x9 x10 x11 x12 x13 x14 x15 x16 x17 x18 x19 x20 x21 x22 x23 x24 x25 x26 x27;
param:  cost :=
  x0  359
  x1  177
  x2  6
  x3  847
  x4  606
  x5  108
  x6  530
  x7  938
  x8  308
  x9  30
  x10  72
  x11  322
  x12  813
  x13  771
  x14  452
  x15  809
  x16  587
  x17  901
  x18  837
  x19  161
  x20  362
  x21  222
  x22  180
  x23  594
  x24  293
  x25  212
  x26  355
  x27  238;
param cap := 7001;